p cnf 764 2215
-1 2 51 0
1 2 -51 0
-1 -2 -51 0
1 -2 51 0
-3 -5 52 0
3 -5 -52 0
-3 5 -52 0
3 5 52 0
-6 7 53 0
6 7 -53 0
-6 -7 -53 0
6 -7 53 0
-11 -15 54 0
11 -15 -54 0
-11 15 -54 0
11 15 54 0
18 19 55 0
-18 19 -55 0
18 -19 -55 0
-18 -19 55 0
-22 24 56 0
22 24 -56 0
-22 -24 -56 0
22 -24 56 0
26 27 57 0
-26 27 -57 0
26 -27 -57 0
-26 -27 57 0
-32 -36 58 0
32 -36 -58 0
-32 36 -58 0
32 36 58 0
37 -40 59 0
-37 -40 -59 0
37 40 -59 0
-37 40 59 0
-42 43 60 0
42 43 -60 0
-42 -43 -60 0
42 -43 60 0
44 -45 61 0
-44 -45 -61 0
44 45 -61 0
-44 45 61 0
-46 -48 62 0
46 -48 -62 0
-46 48 -62 0
46 48 62 0
51 -52 63 0
-51 -52 -63 0
51 52 -63 0
-51 52 63 0
53 -54 64 0
-53 -54 -64 0
53 54 -64 0
-53 54 64 0
55 -56 65 0
-55 -56 -65 0
55 56 -65 0
-55 56 65 0
57 -58 66 0
-57 -58 -66 0
57 58 -66 0
-57 58 66 0
59 -60 67 0
-59 -60 -67 0
59 60 -67 0
-59 60 67 0
61 -62 68 0
-61 -62 -68 0
61 62 -68 0
-61 62 68 0
63 -64 69 0
-63 -64 -69 0
63 64 -69 0
-63 64 69 0
65 -66 70 0
-65 -66 -70 0
65 66 -70 0
-65 66 70 0
67 -68 71 0
-67 -68 -71 0
67 68 -71 0
-67 68 71 0
-69 -70 71 0
69 -70 -71 0
-69 70 -71 0
69 70 71 0
-1 -2 72 0
1 -2 -72 0
-1 2 -72 0
1 2 72 0
3 4 73 0
-3 4 -73 0
3 -4 -73 0
-3 -4 73 0
-8 11 74 0
8 11 -74 0
-8 -11 -74 0
8 -11 74 0
-12 13 75 0
12 13 -75 0
-12 -13 -75 0
12 -13 75 0
19 -20 76 0
-19 -20 -76 0
19 20 -76 0
-19 20 76 0
-21 25 77 0
21 25 -77 0
-21 -25 -77 0
21 -25 77 0
27 30 78 0
-27 30 -78 0
27 -30 -78 0
-27 -30 78 0
-31 -32 79 0
31 -32 -79 0
-31 32 -79 0
31 32 79 0
-34 -39 80 0
34 -39 -80 0
-34 39 -80 0
34 39 80 0
42 -43 81 0
-42 -43 -81 0
42 43 -81 0
-42 43 81 0
45 -48 82 0
-45 -48 -82 0
45 48 -82 0
-45 48 82 0
71 -72 83 0
-71 -72 -83 0
71 72 -83 0
-71 72 83 0
73 -74 84 0
-73 -74 -84 0
73 74 -84 0
-73 74 84 0
75 -76 85 0
-75 -76 -85 0
75 76 -85 0
-75 76 85 0
77 -78 86 0
-77 -78 -86 0
77 78 -86 0
-77 78 86 0
79 -80 87 0
-79 -80 -87 0
79 80 -87 0
-79 80 87 0
81 -82 88 0
-81 -82 -88 0
81 82 -88 0
-81 82 88 0
83 -84 89 0
-83 -84 -89 0
83 84 -89 0
-83 84 89 0
85 -86 90 0
-85 -86 -90 0
85 86 -90 0
-85 86 90 0
87 -88 91 0
-87 -88 -91 0
87 88 -91 0
-87 88 91 0
-89 -90 91 0
89 -90 -91 0
-89 90 -91 0
89 90 91 0
2 3 92 0
-2 3 -92 0
2 -3 -92 0
-2 -3 92 0
-5 6 93 0
5 6 -93 0
-5 -6 -93 0
5 -6 93 0
-7 -9 94 0
7 -9 -94 0
-7 9 -94 0
7 9 94 0
11 14 95 0
-11 14 -95 0
11 -14 -95 0
-11 -14 95 0
-20 -21 96 0
20 -21 -96 0
-20 21 -96 0
20 21 96 0
25 -26 97 0
-25 -26 -97 0
25 26 -97 0
-25 26 97 0
-28 -29 98 0
28 -29 -98 0
-28 29 -98 0
28 29 98 0
31 32 99 0
-31 32 -99 0
31 -32 -99 0
-31 -32 99 0
-34 36 100 0
34 36 -100 0
-34 -36 -100 0
34 -36 100 0
38 -39 101 0
-38 -39 -101 0
38 39 -101 0
-38 39 101 0
40 41 102 0
-40 41 -102 0
40 -41 -102 0
-40 -41 102 0
-42 43 103 0
42 43 -103 0
-42 -43 -103 0
42 -43 103 0
-45 46 104 0
45 46 -104 0
-45 -46 -104 0
45 -46 104 0
48 50 105 0
-48 50 -105 0
48 -50 -105 0
-48 -50 105 0
92 -93 106 0
-92 -93 -106 0
92 93 -106 0
-92 93 106 0
94 -95 107 0
-94 -95 -107 0
94 95 -107 0
-94 95 107 0
96 -97 108 0
-96 -97 -108 0
96 97 -108 0
-96 97 108 0
98 -99 109 0
-98 -99 -109 0
98 99 -109 0
-98 99 109 0
100 -101 110 0
-100 -101 -110 0
100 101 -110 0
-100 101 110 0
102 -103 111 0
-102 -103 -111 0
102 103 -111 0
-102 103 111 0
104 -105 112 0
-104 -105 -112 0
104 105 -112 0
-104 105 112 0
106 -107 113 0
-106 -107 -113 0
106 107 -113 0
-106 107 113 0
108 -109 114 0
-108 -109 -114 0
108 109 -114 0
-108 109 114 0
110 -111 115 0
-110 -111 -115 0
110 111 -115 0
-110 111 115 0
112 -113 116 0
-112 -113 -116 0
112 113 -116 0
-112 113 116 0
114 -115 117 0
-114 -115 -117 0
114 115 -117 0
-114 115 117 0
116 117 0
-116 -117 0
-1 2 118 0
1 2 -118 0
-1 -2 -118 0
1 -2 118 0
-3 -4 119 0
3 -4 -119 0
-3 4 -119 0
3 4 119 0
5 -7 120 0
-5 -7 -120 0
5 7 -120 0
-5 7 120 0
8 10 121 0
-8 10 -121 0
8 -10 -121 0
-8 -10 121 0
-20 21 122 0
20 21 -122 0
-20 -21 -122 0
20 -21 122 0
23 -24 123 0
-23 -24 -123 0
23 24 -123 0
-23 24 123 0
-27 -30 124 0
27 -30 -124 0
-27 30 -124 0
27 30 124 0
31 -32 125 0
-31 -32 -125 0
31 32 -125 0
-31 32 125 0
-34 -35 126 0
34 -35 -126 0
-34 35 -126 0
34 35 126 0
37 38 127 0
-37 38 -127 0
37 -38 -127 0
-37 -38 127 0
40 41 128 0
-40 41 -128 0
40 -41 -128 0
-40 -41 128 0
43 45 129 0
-43 45 -129 0
43 -45 -129 0
-43 -45 129 0
48 -49 130 0
-48 -49 -130 0
48 49 -130 0
-48 49 130 0
118 -119 131 0
-118 -119 -131 0
118 119 -131 0
-118 119 131 0
120 -121 132 0
-120 -121 -132 0
120 121 -132 0
-120 121 132 0
122 -123 133 0
-122 -123 -133 0
122 123 -133 0
-122 123 133 0
124 -125 134 0
-124 -125 -134 0
124 125 -134 0
-124 125 134 0
126 -127 135 0
-126 -127 -135 0
126 127 -135 0
-126 127 135 0
128 -129 136 0
-128 -129 -136 0
128 129 -136 0
-128 129 136 0
130 -131 137 0
-130 -131 -137 0
130 131 -137 0
-130 131 137 0
132 -133 138 0
-132 -133 -138 0
132 133 -138 0
-132 133 138 0
134 -135 139 0
-134 -135 -139 0
134 135 -139 0
-134 135 139 0
136 -137 140 0
-136 -137 -140 0
136 137 -140 0
-136 137 140 0
138 -139 141 0
-138 -139 -141 0
138 139 -141 0
-138 139 141 0
140 141 0
-140 -141 0
-1 3 142 0
1 3 -142 0
-1 -3 -142 0
1 -3 142 0
-5 7 143 0
5 7 -143 0
-5 -7 -143 0
5 -7 143 0
-11 12 144 0
11 12 -144 0
-11 -12 -144 0
11 -12 144 0
15 -18 145 0
-15 -18 -145 0
15 18 -145 0
-15 18 145 0
-22 -23 146 0
22 -23 -146 0
-22 23 -146 0
22 23 146 0
24 26 147 0
-24 26 -147 0
24 -26 -147 0
-24 -26 147 0
27 -28 148 0
-27 -28 -148 0
27 28 -148 0
-27 28 148 0
-29 32 149 0
29 32 -149 0
-29 -32 -149 0
29 -32 149 0
35 -36 150 0
-35 -36 -150 0
35 36 -150 0
-35 36 150 0
-37 38 151 0
37 38 -151 0
-37 -38 -151 0
37 -38 151 0
-44 45 152 0
44 45 -152 0
-44 -45 -152 0
44 -45 152 0
46 -47 153 0
-46 -47 -153 0
46 47 -153 0
-46 47 153 0
48 -50 154 0
-48 -50 -154 0
48 50 -154 0
-48 50 154 0
142 -143 155 0
-142 -143 -155 0
142 143 -155 0
-142 143 155 0
144 -145 156 0
-144 -145 -156 0
144 145 -156 0
-144 145 156 0
146 -147 157 0
-146 -147 -157 0
146 147 -157 0
-146 147 157 0
148 -149 158 0
-148 -149 -158 0
148 149 -158 0
-148 149 158 0
150 -151 159 0
-150 -151 -159 0
150 151 -159 0
-150 151 159 0
152 -153 160 0
-152 -153 -160 0
152 153 -160 0
-152 153 160 0
154 -155 161 0
-154 -155 -161 0
154 155 -161 0
-154 155 161 0
156 -157 162 0
-156 -157 -162 0
156 157 -162 0
-156 157 162 0
158 -159 163 0
-158 -159 -163 0
158 159 -163 0
-158 159 163 0
160 -161 164 0
-160 -161 -164 0
160 161 -164 0
-160 161 164 0
162 -163 165 0
-162 -163 -165 0
162 163 -165 0
-162 163 165 0
164 165 0
-164 -165 0
5 7 166 0
-5 7 -166 0
5 -7 -166 0
-5 -7 166 0
-8 10 167 0
8 10 -167 0
-8 -10 -167 0
8 -10 167 0
13 -16 168 0
-13 -16 -168 0
13 16 -168 0
-13 16 168 0
-17 18 169 0
17 18 -169 0
-17 -18 -169 0
17 -18 169 0
-19 20 170 0
19 20 -170 0
-19 -20 -170 0
19 -20 170 0
-24 -26 171 0
24 -26 -171 0
-24 26 -171 0
24 26 171 0
28 -31 172 0
-28 -31 -172 0
28 31 -172 0
-28 31 172 0
-33 36 173 0
33 36 -173 0
-33 -36 -173 0
33 -36 173 0
-38 -39 174 0
38 -39 -174 0
-38 39 -174 0
38 39 174 0
41 42 175 0
-41 42 -175 0
41 -42 -175 0
-41 -42 175 0
-43 -44 176 0
43 -44 -176 0
-43 44 -176 0
43 44 176 0
-46 47 177 0
46 47 -177 0
-46 -47 -177 0
46 -47 177 0
48 -49 178 0
-48 -49 -178 0
48 49 -178 0
-48 49 178 0
166 -167 179 0
-166 -167 -179 0
166 167 -179 0
-166 167 179 0
168 -169 180 0
-168 -169 -180 0
168 169 -180 0
-168 169 180 0
170 -171 181 0
-170 -171 -181 0
170 171 -181 0
-170 171 181 0
172 -173 182 0
-172 -173 -182 0
172 173 -182 0
-172 173 182 0
174 -175 183 0
-174 -175 -183 0
174 175 -183 0
-174 175 183 0
176 -177 184 0
-176 -177 -184 0
176 177 -184 0
-176 177 184 0
178 -179 185 0
-178 -179 -185 0
178 179 -185 0
-178 179 185 0
180 -181 186 0
-180 -181 -186 0
180 181 -186 0
-180 181 186 0
182 -183 187 0
-182 -183 -187 0
182 183 -187 0
-182 183 187 0
184 -185 188 0
-184 -185 -188 0
184 185 -188 0
-184 185 188 0
186 -187 189 0
-186 -187 -189 0
186 187 -189 0
-186 187 189 0
188 189 0
-188 -189 0
-1 -2 190 0
1 -2 -190 0
-1 2 -190 0
1 2 190 0
-3 -5 191 0
3 -5 -191 0
-3 5 -191 0
3 5 191 0
-8 10 192 0
8 10 -192 0
-8 -10 -192 0
8 -10 192 0
11 13 193 0
-11 13 -193 0
11 -13 -193 0
-11 -13 193 0
-19 -21 194 0
19 -21 -194 0
-19 21 -194 0
19 21 194 0
-22 -23 195 0
22 -23 -195 0
-22 23 -195 0
22 23 195 0
-25 -28 196 0
25 -28 -196 0
-25 28 -196 0
25 28 196 0
30 32 197 0
-30 32 -197 0
30 -32 -197 0
-30 -32 197 0
34 -39 198 0
-34 -39 -198 0
34 39 -198 0
-34 39 198 0
-40 -41 199 0
40 -41 -199 0
-40 41 -199 0
40 41 199 0
42 -43 200 0
-42 -43 -200 0
42 43 -200 0
-42 43 200 0
-44 47 201 0
44 47 -201 0
-44 -47 -201 0
44 -47 201 0
189 -190 202 0
-189 -190 -202 0
189 190 -202 0
-189 190 202 0
191 -192 203 0
-191 -192 -203 0
191 192 -203 0
-191 192 203 0
193 -194 204 0
-193 -194 -204 0
193 194 -204 0
-193 194 204 0
195 -196 205 0
-195 -196 -205 0
195 196 -205 0
-195 196 205 0
197 -198 206 0
-197 -198 -206 0
197 198 -206 0
-197 198 206 0
199 -200 207 0
-199 -200 -207 0
199 200 -207 0
-199 200 207 0
201 -202 208 0
-201 -202 -208 0
201 202 -208 0
-201 202 208 0
203 -204 209 0
-203 -204 -209 0
203 204 -209 0
-203 204 209 0
205 -206 210 0
-205 -206 -210 0
205 206 -210 0
-205 206 210 0
207 -208 211 0
-207 -208 -211 0
207 208 -211 0
-207 208 211 0
209 -210 212 0
-209 -210 -212 0
209 210 -212 0
-209 210 212 0
211 212 0
-211 -212 0
-4 -5 213 0
4 -5 -213 0
-4 5 -213 0
4 5 213 0
-7 8 214 0
7 8 -214 0
-7 -8 -214 0
7 -8 214 0
-10 11 215 0
10 11 -215 0
-10 -11 -215 0
10 -11 215 0
-12 14 216 0
12 14 -216 0
-12 -14 -216 0
12 -14 216 0
-15 16 217 0
15 16 -217 0
-15 -16 -217 0
15 -16 217 0
19 -22 218 0
-19 -22 -218 0
19 22 -218 0
-19 22 218 0
25 28 219 0
-25 28 -219 0
25 -28 -219 0
-25 -28 219 0
30 31 220 0
-30 31 -220 0
30 -31 -220 0
-30 -31 220 0
32 -33 221 0
-32 -33 -221 0
32 33 -221 0
-32 33 221 0
34 -37 222 0
-34 -37 -222 0
34 37 -222 0
-34 37 222 0
41 -43 223 0
-41 -43 -223 0
41 43 -223 0
-41 43 223 0
-45 46 224 0
45 46 -224 0
-45 -46 -224 0
45 -46 224 0
-48 -49 225 0
48 -49 -225 0
-48 49 -225 0
48 49 225 0
212 -213 226 0
-212 -213 -226 0
212 213 -226 0
-212 213 226 0
214 -215 227 0
-214 -215 -227 0
214 215 -227 0
-214 215 227 0
216 -217 228 0
-216 -217 -228 0
216 217 -228 0
-216 217 228 0
218 -219 229 0
-218 -219 -229 0
218 219 -229 0
-218 219 229 0
220 -221 230 0
-220 -221 -230 0
220 221 -230 0
-220 221 230 0
222 -223 231 0
-222 -223 -231 0
222 223 -231 0
-222 223 231 0
224 -225 232 0
-224 -225 -232 0
224 225 -232 0
-224 225 232 0
226 -227 233 0
-226 -227 -233 0
226 227 -233 0
-226 227 233 0
228 -229 234 0
-228 -229 -234 0
228 229 -234 0
-228 229 234 0
230 -231 235 0
-230 -231 -235 0
230 231 -235 0
-230 231 235 0
232 -233 236 0
-232 -233 -236 0
232 233 -236 0
-232 233 236 0
234 -235 237 0
-234 -235 -237 0
234 235 -237 0
-234 235 237 0
236 237 0
-236 -237 0
-2 4 238 0
2 4 -238 0
-2 -4 -238 0
2 -4 238 0
5 -14 239 0
-5 -14 -239 0
5 14 -239 0
-5 14 239 0
-15 -16 240 0
15 -16 -240 0
-15 16 -240 0
15 16 240 0
17 21 241 0
-17 21 -241 0
17 -21 -241 0
-17 -21 241 0
-22 -24 242 0
22 -24 -242 0
-22 24 -242 0
22 24 242 0
25 -28 243 0
-25 -28 -243 0
25 28 -243 0
-25 28 243 0
33 -34 244 0
-33 -34 -244 0
33 34 -244 0
-33 34 244 0
35 38 245 0
-35 38 -245 0
35 -38 -245 0
-35 -38 245 0
-41 -42 246 0
41 -42 -246 0
-41 42 -246 0
41 42 246 0
44 -46 247 0
-44 -46 -247 0
44 46 -247 0
-44 46 247 0
49 -50 248 0
-49 -50 -248 0
49 50 -248 0
-49 50 248 0
238 -239 249 0
-238 -239 -249 0
238 239 -249 0
-238 239 249 0
240 -241 250 0
-240 -241 -250 0
240 241 -250 0
-240 241 250 0
242 -243 251 0
-242 -243 -251 0
242 243 -251 0
-242 243 251 0
244 -245 252 0
-244 -245 -252 0
244 245 -252 0
-244 245 252 0
246 -247 253 0
-246 -247 -253 0
246 247 -253 0
-246 247 253 0
248 -249 254 0
-248 -249 -254 0
248 249 -254 0
-248 249 254 0
250 -251 255 0
-250 -251 -255 0
250 251 -255 0
-250 251 255 0
252 -253 256 0
-252 -253 -256 0
252 253 -256 0
-252 253 256 0
-254 -255 256 0
254 -255 -256 0
-254 255 -256 0
254 255 256 0
1 2 257 0
-1 2 -257 0
1 -2 -257 0
-1 -2 257 0
4 5 258 0
-4 5 -258 0
4 -5 -258 0
-4 -5 258 0
6 -7 259 0
-6 -7 -259 0
6 7 -259 0
-6 7 259 0
-8 -9 260 0
8 -9 -260 0
-8 9 -260 0
8 9 260 0
11 -13 261 0
-11 -13 -261 0
11 13 -261 0
-11 13 261 0
-14 -15 262 0
14 -15 -262 0
-14 15 -262 0
14 15 262 0
-18 -24 263 0
18 -24 -263 0
-18 24 -263 0
18 24 263 0
25 -28 264 0
-25 -28 -264 0
25 28 -264 0
-25 28 264 0
-29 -31 265 0
29 -31 -265 0
-29 31 -265 0
29 31 265 0
32 -33 266 0
-32 -33 -266 0
32 33 -266 0
-32 33 266 0
34 -37 267 0
-34 -37 -267 0
34 37 -267 0
-34 37 267 0
39 -40 268 0
-39 -40 -268 0
39 40 -268 0
-39 40 268 0
-46 -47 269 0
46 -47 -269 0
-46 47 -269 0
46 47 269 0
256 -257 270 0
-256 -257 -270 0
256 257 -270 0
-256 257 270 0
258 -259 271 0
-258 -259 -271 0
258 259 -271 0
-258 259 271 0
260 -261 272 0
-260 -261 -272 0
260 261 -272 0
-260 261 272 0
262 -263 273 0
-262 -263 -273 0
262 263 -273 0
-262 263 273 0
264 -265 274 0
-264 -265 -274 0
264 265 -274 0
-264 265 274 0
266 -267 275 0
-266 -267 -275 0
266 267 -275 0
-266 267 275 0
268 -269 276 0
-268 -269 -276 0
268 269 -276 0
-268 269 276 0
270 -271 277 0
-270 -271 -277 0
270 271 -277 0
-270 271 277 0
272 -273 278 0
-272 -273 -278 0
272 273 -278 0
-272 273 278 0
274 -275 279 0
-274 -275 -279 0
274 275 -279 0
-274 275 279 0
276 -277 280 0
-276 -277 -280 0
276 277 -280 0
-276 277 280 0
278 -279 281 0
-278 -279 -281 0
278 279 -281 0
-278 279 281 0
280 281 0
-280 -281 0
-2 4 282 0
2 4 -282 0
-2 -4 -282 0
2 -4 282 0
6 -7 283 0
-6 -7 -283 0
6 7 -283 0
-6 7 283 0
-8 9 284 0
8 9 -284 0
-8 -9 -284 0
8 -9 284 0
-12 -17 285 0
12 -17 -285 0
-12 17 -285 0
12 17 285 0
-19 -22 286 0
19 -22 -286 0
-19 22 -286 0
19 22 286 0
-25 -26 287 0
25 -26 -287 0
-25 26 -287 0
25 26 287 0
-27 -28 288 0
27 -28 -288 0
-27 28 -288 0
27 28 288 0
29 -31 289 0
-29 -31 -289 0
29 31 -289 0
-29 31 289 0
34 -35 290 0
-34 -35 -290 0
34 35 -290 0
-34 35 290 0
-38 -40 291 0
38 -40 -291 0
-38 40 -291 0
38 40 291 0
-47 50 292 0
47 50 -292 0
-47 -50 -292 0
47 -50 292 0
282 -283 293 0
-282 -283 -293 0
282 283 -293 0
-282 283 293 0
284 -285 294 0
-284 -285 -294 0
284 285 -294 0
-284 285 294 0
286 -287 295 0
-286 -287 -295 0
286 287 -295 0
-286 287 295 0
288 -289 296 0
-288 -289 -296 0
288 289 -296 0
-288 289 296 0
290 -291 297 0
-290 -291 -297 0
290 291 -297 0
-290 291 297 0
292 -293 298 0
-292 -293 -298 0
292 293 -298 0
-292 293 298 0
294 -295 299 0
-294 -295 -299 0
294 295 -299 0
-294 295 299 0
296 -297 300 0
-296 -297 -300 0
296 297 -300 0
-296 297 300 0
-298 -299 300 0
298 -299 -300 0
-298 299 -300 0
298 299 300 0
-2 -3 301 0
2 -3 -301 0
-2 3 -301 0
2 3 301 0
-4 -6 302 0
4 -6 -302 0
-4 6 -302 0
4 6 302 0
7 8 303 0
-7 8 -303 0
7 -8 -303 0
-7 -8 303 0
11 12 304 0
-11 12 -304 0
11 -12 -304 0
-11 -12 304 0
-14 -15 305 0
14 -15 -305 0
-14 15 -305 0
14 15 305 0
-16 18 306 0
16 18 -306 0
-16 -18 -306 0
16 -18 306 0
-20 24 307 0
20 24 -307 0
-20 -24 -307 0
20 -24 307 0
-27 -28 308 0
27 -28 -308 0
-27 28 -308 0
27 28 308 0
-29 -30 309 0
29 -30 -309 0
-29 30 -309 0
29 30 309 0
31 33 310 0
-31 33 -310 0
31 -33 -310 0
-31 -33 310 0
-36 -38 311 0
36 -38 -311 0
-36 38 -311 0
36 38 311 0
40 -41 312 0
-40 -41 -312 0
40 41 -312 0
-40 41 312 0
42 44 313 0
-42 44 -313 0
42 -44 -313 0
-42 -44 313 0
47 48 314 0
-47 48 -314 0
47 -48 -314 0
-47 -48 314 0
300 -301 315 0
-300 -301 -315 0
300 301 -315 0
-300 301 315 0
302 -303 316 0
-302 -303 -316 0
302 303 -316 0
-302 303 316 0
304 -305 317 0
-304 -305 -317 0
304 305 -317 0
-304 305 317 0
306 -307 318 0
-306 -307 -318 0
306 307 -318 0
-306 307 318 0
308 -309 319 0
-308 -309 -319 0
308 309 -319 0
-308 309 319 0
310 -311 320 0
-310 -311 -320 0
310 311 -320 0
-310 311 320 0
312 -313 321 0
-312 -313 -321 0
312 313 -321 0
-312 313 321 0
314 -315 322 0
-314 -315 -322 0
314 315 -322 0
-314 315 322 0
316 -317 323 0
-316 -317 -323 0
316 317 -323 0
-316 317 323 0
318 -319 324 0
-318 -319 -324 0
318 319 -324 0
-318 319 324 0
320 -321 325 0
-320 -321 -325 0
320 321 -325 0
-320 321 325 0
322 -323 326 0
-322 -323 -326 0
322 323 -326 0
-322 323 326 0
324 -325 327 0
-324 -325 -327 0
324 325 -327 0
-324 325 327 0
326 327 0
-326 -327 0
4 -5 328 0
-4 -5 -328 0
4 5 -328 0
-4 5 328 0
-7 11 329 0
7 11 -329 0
-7 -11 -329 0
7 -11 329 0
12 -13 330 0
-12 -13 -330 0
12 13 -330 0
-12 13 330 0
-16 20 331 0
16 20 -331 0
-16 -20 -331 0
16 -20 331 0
-24 25 332 0
24 25 -332 0
-24 -25 -332 0
24 -25 332 0
27 30 333 0
-27 30 -333 0
27 -30 -333 0
-27 -30 333 0
31 34 334 0
-31 34 -334 0
31 -34 -334 0
-31 -34 334 0
36 -38 335 0
-36 -38 -335 0
36 38 -335 0
-36 38 335 0
-41 -44 336 0
41 -44 -336 0
-41 44 -336 0
41 44 336 0
-46 47 337 0
46 47 -337 0
-46 -47 -337 0
46 -47 337 0
327 -328 338 0
-327 -328 -338 0
327 328 -338 0
-327 328 338 0
329 -330 339 0
-329 -330 -339 0
329 330 -339 0
-329 330 339 0
331 -332 340 0
-331 -332 -340 0
331 332 -340 0
-331 332 340 0
333 -334 341 0
-333 -334 -341 0
333 334 -341 0
-333 334 341 0
335 -336 342 0
-335 -336 -342 0
335 336 -342 0
-335 336 342 0
337 -338 343 0
-337 -338 -343 0
337 338 -343 0
-337 338 343 0
339 -340 344 0
-339 -340 -344 0
339 340 -344 0
-339 340 344 0
341 -342 345 0
-341 -342 -345 0
341 342 -345 0
-341 342 345 0
-343 -344 345 0
343 -344 -345 0
-343 344 -345 0
343 344 345 0
-1 -2 346 0
1 -2 -346 0
-1 2 -346 0
1 2 346 0
7 12 347 0
-7 12 -347 0
7 -12 -347 0
-7 -12 347 0
19 -20 348 0
-19 -20 -348 0
19 20 -348 0
-19 20 348 0
21 25 349 0
-21 25 -349 0
21 -25 -349 0
-21 -25 349 0
26 32 350 0
-26 32 -350 0
26 -32 -350 0
-26 -32 350 0
33 35 351 0
-33 35 -351 0
33 -35 -351 0
-33 -35 351 0
36 39 352 0
-36 39 -352 0
36 -39 -352 0
-36 -39 352 0
41 43 353 0
-41 43 -353 0
41 -43 -353 0
-41 -43 353 0
44 -48 354 0
-44 -48 -354 0
44 48 -354 0
-44 48 354 0
345 -346 355 0
-345 -346 -355 0
345 346 -355 0
-345 346 355 0
347 -348 356 0
-347 -348 -356 0
347 348 -356 0
-347 348 356 0
349 -350 357 0
-349 -350 -357 0
349 350 -357 0
-349 350 357 0
351 -352 358 0
-351 -352 -358 0
351 352 -358 0
-351 352 358 0
353 -354 359 0
-353 -354 -359 0
353 354 -359 0
-353 354 359 0
355 -356 360 0
-355 -356 -360 0
355 356 -360 0
-355 356 360 0
357 -358 361 0
-357 -358 -361 0
357 358 -361 0
-357 358 361 0
-359 -360 361 0
359 -360 -361 0
-359 360 -361 0
359 360 361 0
1 4 362 0
-1 4 -362 0
1 -4 -362 0
-1 -4 362 0
11 12 363 0
-11 12 -363 0
11 -12 -363 0
-11 -12 363 0
-13 -14 364 0
13 -14 -364 0
-13 14 -364 0
13 14 364 0
-15 -17 365 0
15 -17 -365 0
-15 17 -365 0
15 17 365 0
-19 21 366 0
19 21 -366 0
-19 -21 -366 0
19 -21 366 0
23 25 367 0
-23 25 -367 0
23 -25 -367 0
-23 -25 367 0
26 28 368 0
-26 28 -368 0
26 -28 -368 0
-26 -28 368 0
29 30 369 0
-29 30 -369 0
29 -30 -369 0
-29 -30 369 0
-31 35 370 0
31 35 -370 0
-31 -35 -370 0
31 -35 370 0
-37 41 371 0
37 41 -371 0
-37 -41 -371 0
37 -41 371 0
42 -47 372 0
-42 -47 -372 0
42 47 -372 0
-42 47 372 0
-48 49 373 0
48 49 -373 0
-48 -49 -373 0
48 -49 373 0
361 -362 374 0
-361 -362 -374 0
361 362 -374 0
-361 362 374 0
363 -364 375 0
-363 -364 -375 0
363 364 -375 0
-363 364 375 0
365 -366 376 0
-365 -366 -376 0
365 366 -376 0
-365 366 376 0
367 -368 377 0
-367 -368 -377 0
367 368 -377 0
-367 368 377 0
369 -370 378 0
-369 -370 -378 0
369 370 -378 0
-369 370 378 0
371 -372 379 0
-371 -372 -379 0
371 372 -379 0
-371 372 379 0
373 -374 380 0
-373 -374 -380 0
373 374 -380 0
-373 374 380 0
375 -376 381 0
-375 -376 -381 0
375 376 -381 0
-375 376 381 0
377 -378 382 0
-377 -378 -382 0
377 378 -382 0
-377 378 382 0
379 -380 383 0
-379 -380 -383 0
379 380 -383 0
-379 380 383 0
381 -382 384 0
-381 -382 -384 0
381 382 -384 0
-381 382 384 0
383 384 0
-383 -384 0
-12 385 0
-24 385 0
-12 -24 386 0
-23 385 0
-12 -23 386 0
-24 -23 386 0
-12 -24 -23 387 0
-22 388 0
-21 388 0
-22 -21 389 0
-20 388 0
-22 -20 389 0
-21 -20 389 0
-22 -21 -20 390 0
-385 391 0
-386 392 0
-387 393 0
-388 391 0
-389 392 0
-390 393 0
-385 -388 392 0
-385 -389 393 0
-385 -390 394 0
-386 -388 393 0
-386 -389 394 0
-386 -390 395 0
-387 -388 394 0
-387 -389 395 0
-387 -390 396 0
-19 397 0
-18 397 0
-19 -18 398 0
-17 397 0
-19 -17 398 0
-18 -17 398 0
-19 -18 -17 399 0
-16 400 0
-15 400 0
-16 -15 401 0
-14 400 0
-16 -14 401 0
-15 -14 401 0
-16 -15 -14 402 0
-397 403 0
-398 404 0
-399 405 0
-400 403 0
-401 404 0
-402 405 0
-397 -400 404 0
-397 -401 405 0
-397 -402 406 0
-398 -400 405 0
-398 -401 406 0
-398 -402 407 0
-399 -400 406 0
-399 -401 407 0
-399 -402 408 0
-391 409 0
-393 410 0
-395 411 0
-403 409 0
-405 410 0
-407 411 0
-391 -403 410 0
-391 -405 411 0
-391 -407 412 0
-393 -403 411 0
-393 -405 412 0
-393 -407 413 0
-395 -403 412 0
-395 -405 413 0
-395 -407 414 0
-392 415 0
-394 416 0
-396 417 0
-404 415 0
-406 416 0
-408 417 0
-392 -404 416 0
-392 -406 417 0
-392 -408 418 0
-394 -404 417 0
-394 -406 418 0
-394 -408 419 0
-396 -404 418 0
-396 -406 419 0
-396 -408 420 0
-410 421 0
-415 421 0
-410 -415 422 0
-411 423 0
-416 423 0
-411 -416 424 0
-412 425 0
-417 425 0
-412 -417 426 0
-413 427 0
-418 427 0
-413 -418 428 0
-414 429 0
-419 429 0
-414 -419 430 0
-13 431 0
-25 431 0
-13 -25 432 0
-11 431 0
-13 -11 432 0
-25 -11 432 0
-13 -25 -11 433 0
-10 434 0
-9 434 0
-10 -9 435 0
-8 434 0
-10 -8 435 0
-9 -8 435 0
-10 -9 -8 436 0
-431 437 0
-432 438 0
-433 439 0
-434 437 0
-435 438 0
-436 439 0
-431 -434 438 0
-431 -435 439 0
-431 -436 440 0
-432 -434 439 0
-432 -435 440 0
-432 -436 441 0
-433 -434 440 0
-433 -435 441 0
-433 -436 442 0
-7 443 0
-6 443 0
-7 -6 444 0
-5 443 0
-7 -5 444 0
-6 -5 444 0
-7 -6 -5 445 0
-4 446 0
-3 446 0
-4 -3 447 0
-2 446 0
-4 -2 447 0
-3 -2 447 0
-4 -3 -2 448 0
-443 449 0
-444 450 0
-445 451 0
-446 449 0
-447 450 0
-448 451 0
-443 -446 450 0
-443 -447 451 0
-443 -448 452 0
-444 -446 451 0
-444 -447 452 0
-444 -448 453 0
-445 -446 452 0
-445 -447 453 0
-445 -448 454 0
-437 455 0
-439 456 0
-441 457 0
-449 455 0
-451 456 0
-453 457 0
-437 -449 456 0
-437 -451 457 0
-437 -453 458 0
-439 -449 457 0
-439 -451 458 0
-439 -453 459 0
-441 -449 458 0
-441 -451 459 0
-441 -453 460 0
-438 461 0
-440 462 0
-442 463 0
-450 461 0
-452 462 0
-454 463 0
-438 -450 462 0
-438 -452 463 0
-438 -454 464 0
-440 -450 463 0
-440 -452 464 0
-440 -454 465 0
-442 -450 464 0
-442 -452 465 0
-442 -454 466 0
-456 467 0
-461 467 0
-456 -461 468 0
-457 469 0
-462 469 0
-457 -462 470 0
-458 471 0
-463 471 0
-458 -463 472 0
-459 473 0
-464 473 0
-459 -464 474 0
-460 475 0
-465 475 0
-460 -465 476 0
-1 477 0
-37 477 0
-1 -37 478 0
-49 477 0
-1 -49 478 0
-37 -49 478 0
-1 -37 -49 479 0
-48 480 0
-47 480 0
-48 -47 481 0
-46 480 0
-48 -46 481 0
-47 -46 481 0
-48 -47 -46 482 0
-477 483 0
-478 484 0
-479 485 0
-480 483 0
-481 484 0
-482 485 0
-477 -480 484 0
-477 -481 485 0
-477 -482 486 0
-478 -480 485 0
-478 -481 486 0
-478 -482 487 0
-479 -480 486 0
-479 -481 487 0
-479 -482 488 0
-45 489 0
-44 489 0
-45 -44 490 0
-43 489 0
-45 -43 490 0
-44 -43 490 0
-45 -44 -43 491 0
-42 492 0
-41 492 0
-42 -41 493 0
-40 492 0
-42 -40 493 0
-41 -40 493 0
-42 -41 -40 494 0
-489 495 0
-490 496 0
-491 497 0
-492 495 0
-493 496 0
-494 497 0
-489 -492 496 0
-489 -493 497 0
-489 -494 498 0
-490 -492 497 0
-490 -493 498 0
-490 -494 499 0
-491 -492 498 0
-491 -493 499 0
-491 -494 500 0
-483 501 0
-485 502 0
-487 503 0
-495 501 0
-497 502 0
-499 503 0
-483 -495 502 0
-483 -497 503 0
-483 -499 504 0
-485 -495 503 0
-485 -497 504 0
-485 -499 505 0
-487 -495 504 0
-487 -497 505 0
-487 -499 506 0
-484 507 0
-486 508 0
-488 509 0
-496 507 0
-498 508 0
-500 509 0
-484 -496 508 0
-484 -498 509 0
-484 -500 510 0
-486 -496 509 0
-486 -498 510 0
-486 -500 511 0
-488 -496 510 0
-488 -498 511 0
-488 -500 512 0
-502 513 0
-507 513 0
-502 -507 514 0
-503 515 0
-508 515 0
-503 -508 516 0
-504 517 0
-509 517 0
-504 -509 518 0
-505 519 0
-510 519 0
-505 -510 520 0
-506 521 0
-511 521 0
-506 -511 522 0
-39 523 0
-38 523 0
-39 -38 524 0
-50 523 0
-39 -50 524 0
-38 -50 524 0
-39 -38 -50 525 0
-36 526 0
-35 526 0
-36 -35 527 0
-34 526 0
-36 -34 527 0
-35 -34 527 0
-36 -35 -34 528 0
-523 529 0
-524 530 0
-525 531 0
-526 529 0
-527 530 0
-528 531 0
-523 -526 530 0
-523 -527 531 0
-523 -528 532 0
-524 -526 531 0
-524 -527 532 0
-524 -528 533 0
-525 -526 532 0
-525 -527 533 0
-525 -528 534 0
-33 535 0
-32 535 0
-33 -32 536 0
-31 535 0
-33 -31 536 0
-32 -31 536 0
-33 -32 -31 537 0
-30 538 0
-29 538 0
-30 -29 539 0
-28 540 0
-27 540 0
-28 -27 541 0
-26 540 0
-28 -26 541 0
-27 -26 541 0
-28 -27 -26 542 0
-538 543 0
-539 544 0
-540 543 0
-541 544 0
-542 545 0
-538 -540 544 0
-538 -541 545 0
-538 -542 546 0
-539 -540 545 0
-539 -541 546 0
-539 -542 547 0
-535 548 0
-536 549 0
-537 550 0
-543 548 0
-544 549 0
-545 550 0
-546 551 0
-547 552 0
-535 -543 549 0
-535 -544 550 0
-535 -545 551 0
-535 -546 552 0
-535 -547 553 0
-536 -543 550 0
-536 -544 551 0
-536 -545 552 0
-536 -546 553 0
-536 -547 554 0
-537 -543 551 0
-537 -544 552 0
-537 -545 553 0
-537 -546 554 0
-537 -547 555 0
-529 556 0
-531 557 0
-533 558 0
-548 556 0
-550 557 0
-552 558 0
-554 559 0
-529 -548 557 0
-529 -550 558 0
-529 -552 559 0
-529 -554 560 0
-531 -548 558 0
-531 -550 559 0
-531 -552 560 0
-531 -554 561 0
-533 -548 559 0
-533 -550 560 0
-533 -552 561 0
-533 -554 562 0
-530 563 0
-532 564 0
-534 565 0
-549 563 0
-551 564 0
-553 565 0
-555 566 0
-530 -549 564 0
-530 -551 565 0
-530 -553 566 0
-530 -555 567 0
-532 -549 565 0
-532 -551 566 0
-532 -553 567 0
-532 -555 568 0
-534 -549 566 0
-534 -551 567 0
-534 -553 568 0
-534 -555 569 0
-557 570 0
-563 570 0
-557 -563 571 0
-558 572 0
-564 572 0
-558 -564 573 0
-559 574 0
-565 574 0
-559 -565 575 0
-560 576 0
-566 576 0
-560 -566 577 0
-561 578 0
-567 578 0
-561 -567 579 0
-562 580 0
-568 580 0
-562 -568 581 0
-501 582 0
-516 583 0
-520 584 0
-556 582 0
-573 583 0
-577 584 0
-581 585 0
-501 -556 583 0
-501 -573 584 0
-501 -577 585 0
-501 -581 586 0
-516 -556 584 0
-516 -573 585 0
-516 -577 586 0
-516 -581 587 0
-520 -556 585 0
-520 -573 586 0
-520 -577 587 0
-514 588 0
-518 589 0
-522 590 0
-571 588 0
-575 589 0
-579 590 0
-514 -571 589 0
-514 -575 590 0
-514 -579 591 0
-518 -571 590 0
-518 -575 591 0
-518 -579 592 0
-522 -571 591 0
-522 -575 592 0
-583 593 0
-588 593 0
-583 -588 594 0
-584 595 0
-589 595 0
-584 -589 596 0
-585 597 0
-590 597 0
-585 -590 598 0
-586 599 0
-591 599 0
-586 -591 600 0
-587 601 0
-592 601 0
-587 -592 602 0
-513 603 0
-517 604 0
-521 605 0
-570 603 0
-574 604 0
-578 605 0
-569 606 0
-513 -570 604 0
-513 -574 605 0
-513 -578 606 0
-513 -569 607 0
-517 -570 605 0
-517 -574 606 0
-517 -578 607 0
-517 -569 608 0
-521 -570 606 0
-521 -574 607 0
-521 -578 608 0
-515 609 0
-519 610 0
-512 611 0
-572 609 0
-576 610 0
-580 611 0
-515 -572 610 0
-515 -576 611 0
-515 -580 612 0
-519 -572 611 0
-519 -576 612 0
-519 -580 613 0
-512 -572 612 0
-512 -576 613 0
-604 614 0
-609 614 0
-604 -609 615 0
-605 616 0
-610 616 0
-605 -610 617 0
-606 618 0
-611 618 0
-606 -611 619 0
-607 620 0
-612 620 0
-607 -612 621 0
-608 622 0
-613 622 0
-593 623 0
-603 623 0
-593 -603 624 0
-594 625 0
-614 625 0
-594 -614 626 0
-595 627 0
-615 627 0
-595 -615 628 0
-596 629 0
-616 629 0
-596 -616 630 0
-597 631 0
-617 631 0
-597 -617 632 0
-598 633 0
-618 633 0
-598 -618 634 0
-599 635 0
-619 635 0
-599 -619 636 0
-600 637 0
-620 637 0
-600 -620 638 0
-601 639 0
-621 639 0
-601 -621 640 0
-602 641 0
-622 641 0
-602 -622 642 0
-455 643 0
-470 644 0
-474 645 0
-582 643 0
-626 644 0
-630 645 0
-634 646 0
-638 647 0
-642 648 0
-455 -582 644 0
-455 -626 645 0
-455 -630 646 0
-455 -634 647 0
-455 -638 648 0
-470 -582 645 0
-470 -626 646 0
-470 -630 647 0
-470 -634 648 0
-474 -582 646 0
-474 -626 647 0
-474 -630 648 0
-468 649 0
-472 650 0
-476 651 0
-624 649 0
-628 650 0
-632 651 0
-636 652 0
-640 653 0
-468 -624 650 0
-468 -628 651 0
-468 -632 652 0
-468 -636 653 0
-472 -624 651 0
-472 -628 652 0
-472 -632 653 0
-476 -624 652 0
-476 -628 653 0
-644 654 0
-649 654 0
-644 -649 655 0
-645 656 0
-650 656 0
-645 -650 657 0
-646 658 0
-651 658 0
-646 -651 659 0
-647 660 0
-652 660 0
-647 -652 661 0
-648 662 0
-653 662 0
-648 -653 663 0
-467 664 0
-471 665 0
-475 666 0
-623 664 0
-627 665 0
-631 666 0
-635 667 0
-639 668 0
-467 -623 665 0
-467 -627 666 0
-467 -631 667 0
-467 -635 668 0
-467 -639 669 0
-471 -623 666 0
-471 -627 667 0
-471 -631 668 0
-471 -635 669 0
-475 -623 667 0
-475 -627 668 0
-475 -631 669 0
-469 670 0
-473 671 0
-466 672 0
-625 670 0
-629 671 0
-633 672 0
-637 673 0
-641 674 0
-469 -625 671 0
-469 -629 672 0
-469 -633 673 0
-469 -637 674 0
-473 -625 672 0
-473 -629 673 0
-473 -633 674 0
-466 -625 673 0
-466 -629 674 0
-665 675 0
-670 675 0
-665 -670 676 0
-666 677 0
-671 677 0
-666 -671 678 0
-667 679 0
-672 679 0
-667 -672 680 0
-668 681 0
-673 681 0
-668 -673 682 0
-669 683 0
-674 683 0
-654 684 0
-664 684 0
-654 -664 685 0
-655 686 0
-675 686 0
-655 -675 687 0
-656 688 0
-676 688 0
-656 -676 689 0
-657 690 0
-677 690 0
-657 -677 691 0
-658 692 0
-678 692 0
-658 -678 693 0
-659 694 0
-679 694 0
-659 -679 695 0
-660 696 0
-680 696 0
-660 -680 697 0
-661 698 0
-681 698 0
-661 -681 699 0
-662 700 0
-682 700 0
-662 -682 701 0
-663 702 0
-683 702 0
-663 -683 703 0
-409 704 0
-424 705 0
-428 706 0
-643 704 0
-687 705 0
-691 706 0
-695 707 0
-699 708 0
-703 709 0
-409 -643 705 0
-409 -687 706 0
-409 -691 707 0
-409 -695 708 0
-409 -699 709 0
-424 -643 706 0
-424 -687 707 0
-424 -691 708 0
-424 -695 709 0
-428 -643 707 0
-428 -687 708 0
-428 -691 709 0
-422 710 0
-426 711 0
-430 712 0
-685 710 0
-689 711 0
-693 712 0
-697 713 0
-701 714 0
-422 -685 711 0
-422 -689 712 0
-422 -693 713 0
-422 -697 714 0
-426 -685 712 0
-426 -689 713 0
-426 -693 714 0
-430 -685 713 0
-430 -689 714 0
-705 715 0
-710 715 0
-705 -710 716 0
-706 717 0
-711 717 0
-706 -711 718 0
-707 719 0
-712 719 0
-707 -712 720 0
-708 721 0
-713 721 0
-708 -713 722 0
-709 723 0
-714 723 0
-709 -714 724 0
-421 725 0
-425 726 0
-429 727 0
-684 725 0
-688 726 0
-692 727 0
-696 728 0
-700 729 0
-421 -684 726 0
-421 -688 727 0
-421 -692 728 0
-421 -696 729 0
-421 -700 730 0
-425 -684 727 0
-425 -688 728 0
-425 -692 729 0
-425 -696 730 0
-429 -684 728 0
-429 -688 729 0
-429 -692 730 0
-423 731 0
-427 732 0
-420 733 0
-686 731 0
-690 732 0
-694 733 0
-698 734 0
-702 735 0
-423 -686 732 0
-423 -690 733 0
-423 -694 734 0
-423 -698 735 0
-427 -686 733 0
-427 -690 734 0
-427 -694 735 0
-420 -686 734 0
-420 -690 735 0
-726 736 0
-731 736 0
-726 -731 737 0
-727 738 0
-732 738 0
-727 -732 739 0
-728 740 0
-733 740 0
-728 -733 741 0
-729 742 0
-734 742 0
-729 -734 743 0
-730 744 0
-735 744 0
-715 745 0
-725 745 0
-715 -725 746 0
-716 747 0
-736 747 0
-716 -736 748 0
-717 749 0
-737 749 0
-717 -737 750 0
-718 751 0
-738 751 0
-718 -738 752 0
-719 753 0
-739 753 0
-719 -739 754 0
-720 755 0
-740 755 0
-720 -740 756 0
-721 757 0
-741 757 0
-721 -741 758 0
-722 759 0
-742 759 0
-722 -742 760 0
-723 761 0
-743 761 0
-723 -743 762 0
-724 763 0
-744 763 0
-724 -744 764 0
-764 0
